33D32945 STP File, STP Format Version 1.0

SECTION Comments
Name "edge_n13_d3_s8"
Problem "Euclidean Steiner Tree Problem"
Remark "Generated with STPGenerator. 3 dimensions."
END

SECTION Graph
Nodes 13
END

SECTION Coordinates
DDD 0 0.3527607286 0.3527607286 0.3527607286
DDD 1 0.7895895954 0.7895895954 0.7895895954
DDD 2 0.9058258696 0.9058258696 0.9058258696
DDD 3 0.0438874350 0.0438874350 0.0438874350
DDD 4 0.9542649202 0.9542649202 0.9542649202
DDD 5 0.2482710840 0.2482710840 0.2482710840
DDD 6 0.8679820145 0.8679820145 0.8679820145
DDD 7 0.8387081427 0.8387081427 0.8387081427
DDD 8 0.9220907362 0.9220907362 0.9220907362
DDD 9 0.6533997663 0.6533997663 0.6533997663
DDD 10 0.5500675400 0.5500675400 0.5500675400
DDD 11 0.2691321919 0.2691321919 0.2691321919
DDD 12 0.6820132009 0.6820132009 0.6820132009
END
